Solver command line: ['C:\\gurobi1002\\win64\\bin\\gurobi.bat']

Set parameter Username
Academic license - for non-commercial use only - expires 2024-08-20
Read LP format model from file C:\Users\mhafeman\AppData\Local\Temp\tmpia4aju_4.pyomo.lp
Reading time = 1.35 seconds
obj: 297841 rows, 262799 columns, 709547 nonzeros
Gurobi Optimizer version 10.0.2 build v10.0.2rc0 (win64)

CPU model: AMD Ryzen 7 3800X 8-Core Processor, instruction set [SSE2|AVX|AVX2]
Thread count: 8 physical cores, 16 logical processors, using up to 16 threads

Optimize a model with 297841 rows, 262799 columns and 709547 nonzeros
Model fingerprint: 0x9c920461
Model has 8759 quadratic constraints
Variable types: 201480 continuous, 61319 integer (43800 binary)
Coefficient statistics:
  Matrix range     [1e-04, 3e+02]
  QMatrix range    [1e+00, 1e+00]
  Objective range  [1e-02, 3e+02]
  Bounds range     [1e+00, 3e+00]
  RHS range        [1e-03, 1e+03]
Presolve removed 237894 rows and 194092 columns
Presolve time: 0.92s
Presolved: 59947 rows, 68707 columns, 163634 nonzeros
Variable types: 34981 continuous, 33726 integer (33726 binary)
Found heuristic solution: objective -3.90019e+07
Deterministic concurrent LP optimizer: primal and dual simplex
Showing first log only...

Warning: Markowitz tolerance tightened to 0.5
Concurrent spin time: 0.04s

Solved with dual simplex

Root relaxation: objective -4.864023e+07, 16197 iterations, 0.40 seconds (0.38 work units)

    Nodes    |    Current Node    |     Objective Bounds      |     Work
 Expl Unexpl |  Obj  Depth IntInf | Incumbent    BestBd   Gap | It/Node Time

     0     0 -4.864e+07    0  193 -3.900e+07 -4.864e+07  24.7%     -    2s
H    0     0                    -4.86328e+07 -4.864e+07  0.02%     -    2s
H    0     0                    -4.86328e+07 -4.864e+07  0.02%     -    2s
     0     0 -4.864e+07    0  204 -4.863e+07 -4.864e+07  0.02%     -    2s
H    0     0                    -4.86334e+07 -4.864e+07  0.01%     -    3s
H    0     0                    -4.86400e+07 -4.864e+07  0.00%     -    3s

Cutting planes:
  Gomory: 45
  Cover: 69
  Implied bound: 36
  Clique: 36
  MIR: 2
  Flow cover: 3
  RLT: 5
  Relax-and-lift: 4

Explored 1 nodes (20893 simplex iterations) in 3.17 seconds (2.87 work units)
Thread count was 16 (of 16 available processors)

Solution count 5: -4.864e+07 -4.86334e+07 -4.86328e+07 ... -3.90019e+07

Optimal solution found (tolerance 1.00e-04)
Best objective -4.863995314843e+07, best bound -4.864022565654e+07, gap 0.0006%

